#######################################
### Exact MIP solver for the HHCRSP ###
#######################################
-- Instance file: new-instances/HHCRSP_50_10_85_1.0_C_RC.txt
-- Max threads: 4
-- Time limit: 999999 seconds
-- Use initial solution: No
Trivial flow violations prevented generating 6019 variables.
Model exported.
Version identifier: 20.1.0.0 | 2020-11-10 | 9bedb6d68
CPXPARAM_Threads                                 4
CPXPARAM_TimeLimit                               999999
Parallel mode: deterministic, using up to 4 threads for concurrent optimization:
 * Starting dual Simplex on 1 thread...
 * Starting Barrier on 3 threads...
Tried aggregator 1 time.
LP Presolve eliminated 1368 rows and 400 columns.
Reduced LP has 6852 rows, 6635 columns, and 57720 nonzeros.
Presolve time = 0.03 sec. (16.95 ticks)
Symmetry aggregator did 5742 additional substitutions.

Iteration log . . .
Iteration:     1   Dual objective     =             0.000000

Dual crossover.
  Dual:  Fixing 107 variables.
      106 DMoves:  Infeasibility  2.60347333e-14  Objective  1.33666667e+02
        0 DMoves:  Infeasibility  1.17683674e-14  Objective  1.33666667e+02
  Dual:  Pushed 12, exchanged 95.
  Primal:  Fixing 29 variables.
       28 PMoves:  Infeasibility  1.11022302e-16  Objective  1.33666667e+02
        0 PMoves:  Infeasibility  1.11022302e-16  Objective  1.33666667e+02
  Primal:  Pushed 4, exchanged 25.

Dual simplex solved model.


Solution status from MIP model:
-- Processing time: 0.069 sec.
-- Memory used: 73.1758 MB
-- Best bound: inf
-- Obj value: 133.667
-- Gap: inf%
-- Total distance: 401
-- Total tardiness: 0
-- Largest tardiness: 0
